c Sudoku solution
p cnf 729 0
122 0
183 0
234 0
247 0
253 0
266 0
289 0
349 0
352 0
378 0
469 0
495 0
527 0
532 0
613 0
621 0
654 0
697 0
457 0
714 0
424 0
733 0
323 0
759 0
787 0
177 0
815 0
912 0
635 0
519 0
679 0
317 0
139 0
225 0
385 0
218 0
111 0
336 0
361 0
196 0
394 0
416 0
438 0
944 0
164 0
958 0
155 0
148 0
981 0
741 0
856 0
831 0
937 0
867 0
551 0
545 0
646 0
482 0
471 0
688 0
593 0
443 0
662 0
568 0
842 0
765 0
963 0
975 0
776 0
792 0
728 0
926 0
829 0
999 0
272 0
291 0
873 0
898 0
884 0
574 0
586 0
